NAME : eil50
COMMENT : 50-city problem derived from Christofides/Eilon according to Darrell Whitley, Tim Starkweather, and D’Ann Fuquay. Scheduling problems and traveling salesman: The genetic edge recombination operator. In David Schaffer, editor. Proceedings of the Third International Conference on Genetic Algorithms (ICGA). Morgan Kaufmann, June 1989., pages 133–140.
TYPE : TSP
DIMENSION : 50
EDGE_WEIGHT_TYPE : EUC_2D
NODE_COORD_SECTION
1 37 69
2 27 68
3 31 62
4 42 57
5 37 52
6 38 46
7 42 41
8 45 35
9 40 30
10 32 22
11 27 23
12 20 26
13 17 33
14 25 32
15 31 32
16 32 39
17 30 48
18 21 47
19 25 55
20 16 57
21 17 63
22 5 64
23 8 52
24 12 42
25 7 38
26 5 25
27 10 17
28 5 6
29 13 13
30 21 10
31 30 15
32 36 16
33 39 10
34 46 10
35 59 15
36 51 21
37 58 27
38 48 28
39 52 33
40 52 41
41 56 37
42 61 33
43 62 42
44 58 48
45 49 49
46 57 58
47 62 63
48 63 69
49 52 64
50 43 67
TOUR_SECTION
1 2 3 4 5 6 7 8 9 10 11 12 13 14 15 16 17 18 19 20 21 22 23 24 25 26 27 28 29 30 31 32 33 34 35 36 37 38 39 40 41 42 43 44 45 46 47 48 49 50 -1
1 3 2 21 22 23 20 19 18 17 16 15 14 12 13 24 25 26 27 28 29 30 31 11 10
32 33 34 35 36 37 42 41 39 38 9 8 7 6 5 4 45 40 43 44 46 47 48 49 50 -1
-1
EOF
